% demand
num_movements = 28;
loading_factor = [1650, 1400, 1100, 1650, 1200, 1500, 1250, 1050, 1550, 1750, 900, 1350, 1000, 1450, 1250, 1100, 1300, 900, 1400, 1300, 1000, 1950, 1750, 800, 800, 1700, 1900, 1800];
pickup_time = [0, 0, 0, 0, 0, 3, 3, 3, 4, 5, 6, 7, 7, 7, 7, 8, 8, 8, 8, 8, 8, 9, 9, 9, 9, 9, 10, 12];
delivery_time = [6, 3, 7, 2, 3, 5, 4, 5, 7, 7, 7, 8, 8, 8, 8, 9, 9, 9, 9, 9, 9, 10, 11, 12, 12, 12, 12, 13];

% transporter definition
total_capacity = 7000;
num_decks = 3;
capacity = [3000, 1000, 3000];

% ways out of decks
num_ways_out = 1;
paths_out = array3d(decks, ways_out, decks, [
% ways out of deck d1
2, 3, 0, 

% ways out of deck d2
3, 0, 0, 

% ways out of deck d3
0, 0, 0,	

]);

